# Objective value = 4.5614100000000117e+03
I_0_0 1318
I_0_1 1.5120000000000020e+03
I_0_2 1.5200000000000080e+03
I_0_3 2.0649999999999986e+03
I_1_0 150
I_1_1 150
I_1_2 75
I_1_3 0
I_2_0 36
I_2_1 3.5999999999999204e+01
I_2_2 1.7999999999997506e+01
I_2_3 6.0258464884555e-12
I_3_0 72
I_3_1 72
I_3_2 72
I_3_3 0
I_4_0 100
I_4_1 9.9999999999997783e+01
I_4_2 4.9999999999997804e+01
I_4_3 8.8817841970012523e-16
I_5_0 75
I_5_1 0
I_5_2 7.5000000000011511e+01
I_5_3 0
I_6_0 39
I_6_1 -2.7061686225238191e-16
I_6_2 39
I_6_3 0
I_7_0 118
I_7_1 118
I_7_2 59
I_7_3 0
I_8_0 77
I_8_1 77
I_8_2 77
I_8_3 0
I_9_0 54
I_9_1 0
I_9_2 5.3999999999984318e+01
I_9_3 2.3980817331903381e-12
I_10_0 52
I_10_1 2.6000000000001162e+01
I_10_2 5.2000000000001165e+01
I_10_3 2.5999999999992937e+01
q_1_0_0 0
q_1_0_1 -3.5527136788005009e-15
q_1_0_2 0
q_1_1_0 75
q_1_1_1 0
q_1_1_2 0
q_1_2_0 0
q_1_2_1 0
q_1_2_2 0
q_1_3_0 0
q_1_3_1 0
q_1_3_2 0
q_2_0_0 17.9999999999992
q_2_0_1 6.1585536638262027e-12
q_2_0_2 8.5243991133574771e-12
q_2_1_0 0
q_2_1_1 0
q_2_1_2 0
q_2_2_0 0
q_2_2_1 -7.8577144790870079e-12
q_2_2_2 0
q_2_3_0 0
q_2_3_1 0
q_2_3_2 0
q_3_0_0 0
q_3_0_1 -9.64028856742516e-12
q_3_0_2 0
q_3_1_0 72
q_3_1_1 0
q_3_1_2 0
q_3_2_0 0
q_3_2_1 7.2000000000009649e+01
q_3_2_2 0
q_3_3_0 0
q_3_3_1 0
q_3_3_2 0
q_4_0_0 4.9999999999997783e+01
q_4_0_1 0
q_4_0_2 2.1964652319184097e-12
q_4_1_0 0
q_4_1_1 0
q_4_1_2 0
q_4_2_0 0
q_4_2_1 1.0658141036401503e-14
q_4_2_2 0
q_4_3_0 0
q_4_3_1 0
q_4_3_2 0
q_5_0_0 0
q_5_0_1 1.1507364014468582e-11
q_5_0_2 -1.1510792319313623e-11
q_5_1_0 0
q_5_1_1 150
q_5_1_2 0
q_5_2_0 0
q_5_2_1 0
q_5_2_2 0
q_5_3_0 0
q_5_3_1 0
q_5_3_2 0
q_6_0_0 0
q_6_0_1 0
q_6_0_2 0
q_6_1_0 -2.7061686225238191e-16
q_6_1_1 0
q_6_1_2 0
q_6_2_0 0
q_6_2_1 78
q_6_2_2 0
q_6_3_0 0
q_6_3_1 0
q_6_3_2 0
q_7_0_0 59
q_7_0_1 0
q_7_0_2 0
q_7_1_0 0
q_7_1_1 0
q_7_1_2 0
q_7_2_0 0
q_7_2_1 0
q_7_2_2 0
q_7_3_0 0
q_7_3_1 0
q_7_3_2 0
q_8_0_0 77
q_8_0_1 77
q_8_0_2 0
q_8_1_0 0
q_8_1_1 0
q_8_1_2 0
q_8_2_0 0
q_8_2_1 0
q_8_2_2 0
q_8_3_0 0
q_8_3_1 0
q_8_3_2 0
q_9_0_0 0
q_9_0_1 1.0799999999998477e+02
q_9_0_2 1.8072821017511842e-11
q_9_1_0 1.1600720384308261e-12
q_9_1_1 0
q_9_1_2 0
q_9_2_0 0
q_9_2_1 -4.5652370772586437e-13
q_9_2_2 0
q_9_3_0 -1.1600720384308261e-12
q_9_3_1 0
q_9_3_2 0
q_10_0_0 0
q_10_0_1 0
q_10_0_2 -8.22808488010196e-12
q_10_1_0 0
q_10_1_1 0
q_10_1_2 0
q_10_2_0 0
q_10_2_1 5.2000000000000007e+01
q_10_2_2 0
q_10_3_0 1.1604051053382136e-12
q_10_3_1 0
q_10_3_2 0
y_0_0_0 1
y_0_0_1 1
y_0_0_2 4.4408920985006262e-14
y_0_1_0 1
y_0_1_1 1
y_0_1_2 0
y_0_2_0 0
y_0_2_1 1
y_0_2_2 0
y_0_3_0 0
y_0_3_1 0
y_0_3_2 0
y_1_0_0 0
y_1_0_1 0
y_1_0_2 0
y_1_1_0 1
y_1_1_1 0
y_1_1_2 0
y_1_2_0 0
y_1_2_1 0
y_1_2_2 0
y_1_3_0 0
y_1_3_1 0
y_1_3_2 0
y_2_0_0 9.9999999999995559e-01
y_2_0_1 0
y_2_0_2 1.7789360925270278e-13
y_2_1_0 0
y_2_1_1 0
y_2_1_2 0
y_2_2_0 0
y_2_2_1 -2.1829760221692140e-13
y_2_2_2 0
y_2_3_0 0
y_2_3_1 0
y_2_3_2 0
y_3_0_0 0
y_3_0_1 -1.3394840792102514e-13
y_3_0_2 0
y_3_1_0 1
y_3_1_1 0
y_3_1_2 0
y_3_2_0 0
y_3_2_1 1.0000000000001339e+00
y_3_2_2 0
y_3_3_0 0
y_3_3_1 0
y_3_3_2 0
y_4_0_0 9.9999999999995559e-01
y_4_0_1 0
y_4_0_2 4.4214631955696859e-14
y_4_1_0 0
y_4_1_1 0
y_4_1_2 0
y_4_2_0 0
y_4_2_1 0
y_4_2_2 0
y_4_3_0 0
y_4_3_1 0
y_4_3_2 0
y_5_0_0 0
y_5_0_1 7.6715760096457210e-14
y_5_0_2 0
y_5_1_0 0
y_5_1_1 1
y_5_1_2 0
y_5_2_0 0
y_5_2_1 0
y_5_2_2 0
y_5_3_0 0
y_5_3_1 0
y_5_3_2 0
y_6_0_0 0
y_6_0_1 0
y_6_0_2 0
y_6_1_0 -6.9388939039072284e-18
y_6_1_1 0
y_6_1_2 0
y_6_2_0 0
y_6_2_1 1
y_6_2_2 0
y_6_3_0 0
y_6_3_1 0
y_6_3_2 0
y_7_0_0 1
y_7_0_1 0
y_7_0_2 0
y_7_1_0 0
y_7_1_1 0
y_7_1_2 0
y_7_2_0 0
y_7_2_1 0
y_7_2_2 0
y_7_3_0 0
y_7_3_1 0
y_7_3_2 0
y_8_0_0 1
y_8_0_1 1
y_8_0_2 0
y_8_1_0 0
y_8_1_1 0
y_8_1_2 0
y_8_2_0 0
y_8_2_1 0
y_8_2_2 0
y_8_3_0 0
y_8_3_1 5.5511151231257827e-17
y_8_3_2 0
y_9_0_0 0
y_9_0_1 9.9999999999985878e-01
y_9_0_2 4.4408920985006262e-14
y_9_1_0 2.1482815526496779e-14
y_9_1_1 0
y_9_1_2 0
y_9_2_0 0
y_9_2_1 -4.2015002588158268e-15
y_9_2_2 0
y_9_3_0 -2.1482815526496779e-14
y_9_3_1 0
y_9_3_2 0
y_10_0_0 0
y_10_0_1 0
y_10_0_2 -4.4630965589931293e-14
y_10_1_0 0
y_10_1_1 0
y_10_1_2 0
y_10_2_0 0
y_10_2_1 1
y_10_2_2 0
y_10_3_0 4.4630965589931293e-14
y_10_3_1 0
y_10_3_2 0
x_0_1_0_0 0
x_0_1_0_1 0
x_0_1_0_2 0
x_0_1_1_0 1.0000000000000215e+00
x_0_1_1_1 0
x_0_1_1_2 0
x_0_1_2_0 0
x_0_1_2_1 0
x_0_1_2_2 0
x_0_1_3_0 0
x_0_1_3_1 0
x_0_1_3_2 0
x_0_2_0_0 9.9999999999995559e-01
x_0_2_0_1 0
x_0_2_0_2 1.7791323969618134e-13
x_0_2_1_0 0
x_0_2_1_1 0
x_0_2_1_2 0
x_0_2_2_0 0
x_0_2_2_1 -4.3659520443384281e-13
x_0_2_2_2 0
x_0_2_3_0 6.6169292267659330e-14
x_0_2_3_1 0
x_0_2_3_2 0
x_0_3_0_0 0
x_0_3_0_1 -1.3386514119417825e-13
x_0_3_0_2 0
x_0_3_1_0 9.9999999999997857e-01
x_0_3_1_1 0
x_0_3_1_2 0
x_0_3_2_0 0
x_0_3_2_1 1.0000000000002678e+00
x_0_3_2_2 0
x_0_3_3_0 0
x_0_3_3_1 0
x_0_3_3_2 0
x_0_4_0_0 0
x_0_4_0_1 0
x_0_4_0_2 0
x_0_4_1_0 0
x_0_4_1_1 0
x_0_4_1_2 0
x_0_4_2_0 0
x_0_4_2_1 0
x_0_4_2_2 0
x_0_4_3_0 -6.6169292267659330e-14
x_0_4_3_1 0
x_0_4_3_2 0
x_0_5_0_0 0
x_0_5_0_1 1.5343152019291442e-13
x_0_5_0_2 0
x_0_5_1_0 0
x_0_5_1_1 2
x_0_5_1_2 0
x_0_5_2_0 0
x_0_5_2_1 0
x_0_5_2_2 0
x_0_5_3_0 0
x_0_5_3_1 5.5511151231257827e-17
x_0_5_3_2 0
x_0_6_0_0 0
x_0_6_0_1 0
x_0_6_0_2 0
x_0_6_1_0 0
x_0_6_1_1 0
x_0_6_1_2 0
x_0_6_2_0 0
x_0_6_2_1 8.4265927569049381e-14
x_0_6_2_2 0
x_0_6_3_0 0
x_0_6_3_1 0
x_0_6_3_2 0
x_0_7_0_0 1
x_0_7_0_1 0
x_0_7_0_2 0
x_0_7_1_0 0
x_0_7_1_1 0
x_0_7_1_2 0
x_0_7_2_0 0
x_0_7_2_1 0
x_0_7_2_2 0
x_0_7_3_0 0
x_0_7_3_1 0
x_0_7_3_2 0
x_0_8_0_0 4.4686476741162551e-14
x_0_8_0_1 1.0000000000000571e+00
x_0_8_0_2 -8.8928864272475039e-14
x_0_8_1_0 0
x_0_8_1_1 0
x_0_8_1_2 0
x_0_8_2_0 0
x_0_8_2_1 0
x_0_8_2_2 0
x_0_8_3_0 0
x_0_8_3_1 0
x_0_8_3_2 0
x_0_9_0_0 0
x_0_9_0_1 1
x_0_9_0_2 0
x_0_9_1_0 0
x_0_9_1_1 0
x_0_9_1_2 0
x_0_9_2_0 0
x_0_9_2_1 7.5901090967889218e-14
x_0_9_2_2 0
x_0_9_3_0 0
x_0_9_3_1 0
x_0_9_3_2 0
x_0_10_0_0 0
x_0_10_0_1 0
x_0_10_0_2 0
x_0_10_1_0 0
x_0_10_1_1 0
x_0_10_1_2 0
x_0_10_2_0 0
x_0_10_2_1 1
x_0_10_2_2 0
x_0_10_3_0 0
x_0_10_3_1 0
x_0_10_3_2 0
x_1_2_0_0 0
x_1_2_0_1 0
x_1_2_0_2 0
x_1_2_1_0 0
x_1_2_1_1 0
x_1_2_1_2 0
x_1_2_2_0 0
x_1_2_2_1 0
x_1_2_2_2 0
x_1_2_3_0 0
x_1_2_3_1 0
x_1_2_3_2 0
x_1_3_0_0 0
x_1_3_0_1 0
x_1_3_0_2 0
x_1_3_1_0 9.9999999999997857e-01
x_1_3_1_1 0
x_1_3_1_2 0
x_1_3_2_0 0
x_1_3_2_1 0
x_1_3_2_2 0
x_1_3_3_0 0
x_1_3_3_1 0
x_1_3_3_2 0
x_1_4_0_0 0
x_1_4_0_1 0
x_1_4_0_2 0
x_1_4_1_0 0
x_1_4_1_1 0
x_1_4_1_2 0
x_1_4_2_0 0
x_1_4_2_1 0
x_1_4_2_2 0
x_1_4_3_0 0
x_1_4_3_1 0
x_1_4_3_2 0
x_1_5_0_0 0
x_1_5_0_1 0
x_1_5_0_2 0
x_1_5_1_0 0
x_1_5_1_1 0
x_1_5_1_2 0
x_1_5_2_0 0
x_1_5_2_1 0
x_1_5_2_2 0
x_1_5_3_0 0
x_1_5_3_1 0
x_1_5_3_2 0
x_1_6_0_0 0
x_1_6_0_1 0
x_1_6_0_2 0
x_1_6_1_0 0
x_1_6_1_1 0
x_1_6_1_2 0
x_1_6_2_0 0
x_1_6_2_1 0
x_1_6_2_2 0
x_1_6_3_0 0
x_1_6_3_1 0
x_1_6_3_2 0
x_1_7_0_0 0
x_1_7_0_1 0
x_1_7_0_2 0
x_1_7_1_0 0
x_1_7_1_1 0
x_1_7_1_2 0
x_1_7_2_0 0
x_1_7_2_1 0
x_1_7_2_2 0
x_1_7_3_0 0
x_1_7_3_1 0
x_1_7_3_2 0
x_1_8_0_0 0
x_1_8_0_1 0
x_1_8_0_2 0
x_1_8_1_0 0
x_1_8_1_1 0
x_1_8_1_2 0
x_1_8_2_0 0
x_1_8_2_1 0
x_1_8_2_2 0
x_1_8_3_0 0
x_1_8_3_1 0
x_1_8_3_2 0
x_1_9_0_0 0
x_1_9_0_1 0
x_1_9_0_2 0
x_1_9_1_0 0
x_1_9_1_1 0
x_1_9_1_2 0
x_1_9_2_0 0
x_1_9_2_1 0
x_1_9_2_2 0
x_1_9_3_0 0
x_1_9_3_1 0
x_1_9_3_2 0
x_1_10_0_0 0
x_1_10_0_1 0
x_1_10_0_2 0
x_1_10_1_0 0
x_1_10_1_1 0
x_1_10_1_2 0
x_1_10_2_0 0
x_1_10_2_1 0
x_1_10_2_2 0
x_1_10_3_0 0
x_1_10_3_1 0
x_1_10_3_2 0
x_2_3_0_0 0
x_2_3_0_1 0
x_2_3_0_2 0
x_2_3_1_0 0
x_2_3_1_1 0
x_2_3_1_2 0
x_2_3_2_0 0
x_2_3_2_1 0
x_2_3_2_2 0
x_2_3_3_0 0
x_2_3_3_1 0
x_2_3_3_2 0
x_2_4_0_0 9.9999999999995559e-01
x_2_4_0_1 0
x_2_4_0_2 1.7785772854495008e-13
x_2_4_1_0 0
x_2_4_1_1 0
x_2_4_1_2 0
x_2_4_2_0 0
x_2_4_2_1 0
x_2_4_2_2 0
x_2_4_3_0 -6.6169292267659330e-14
x_2_4_3_1 0
x_2_4_3_2 0
x_2_5_0_0 0
x_2_5_0_1 0
x_2_5_0_2 0
x_2_5_1_0 0
x_2_5_1_1 0
x_2_5_1_2 0
x_2_5_2_0 0
x_2_5_2_1 0
x_2_5_2_2 0
x_2_5_3_0 0
x_2_5_3_1 0
x_2_5_3_2 0
x_2_6_0_0 0
x_2_6_0_1 0
x_2_6_0_2 0
x_2_6_1_0 0
x_2_6_1_1 0
x_2_6_1_2 0
x_2_6_2_0 0
x_2_6_2_1 0
x_2_6_2_2 0
x_2_6_3_0 0
x_2_6_3_1 0
x_2_6_3_2 0
x_2_7_0_0 0
x_2_7_0_1 0
x_2_7_0_2 0
x_2_7_1_0 0
x_2_7_1_1 0
x_2_7_1_2 0
x_2_7_2_0 0
x_2_7_2_1 0
x_2_7_2_2 0
x_2_7_3_0 0
x_2_7_3_1 0
x_2_7_3_2 0
x_2_8_0_0 0
x_2_8_0_1 0
x_2_8_0_2 0
x_2_8_1_0 0
x_2_8_1_1 0
x_2_8_1_2 0
x_2_8_2_0 0
x_2_8_2_1 0
x_2_8_2_2 0
x_2_8_3_0 0
x_2_8_3_1 0
x_2_8_3_2 0
x_2_9_0_0 0
x_2_9_0_1 0
x_2_9_0_2 0
x_2_9_1_0 0
x_2_9_1_1 0
x_2_9_1_2 0
x_2_9_2_0 0
x_2_9_2_1 0
x_2_9_2_2 0
x_2_9_3_0 0
x_2_9_3_1 0
x_2_9_3_2 0
x_2_10_0_0 0
x_2_10_0_1 0
x_2_10_0_2 0
x_2_10_1_0 0
x_2_10_1_1 0
x_2_10_1_2 0
x_2_10_2_0 0
x_2_10_2_1 0
x_2_10_2_2 0
x_2_10_3_0 0
x_2_10_3_1 0
x_2_10_3_2 0
x_3_4_0_0 0
x_3_4_0_1 0
x_3_4_0_2 0
x_3_4_1_0 0
x_3_4_1_1 0
x_3_4_1_2 0
x_3_4_2_0 0
x_3_4_2_1 0
x_3_4_2_2 0
x_3_4_3_0 0
x_3_4_3_1 0
x_3_4_3_2 0
x_3_5_0_0 0
x_3_5_0_1 0
x_3_5_0_2 0
x_3_5_1_0 0
x_3_5_1_1 0
x_3_5_1_2 0
x_3_5_2_0 0
x_3_5_2_1 0
x_3_5_2_2 0
x_3_5_3_0 0
x_3_5_3_1 0
x_3_5_3_2 0
x_3_6_0_0 0
x_3_6_0_1 0
x_3_6_0_2 0
x_3_6_1_0 0
x_3_6_1_1 0
x_3_6_1_2 0
x_3_6_2_0 0
x_3_6_2_1 1
x_3_6_2_2 0
x_3_6_3_0 0
x_3_6_3_1 0
x_3_6_3_2 0
x_3_7_0_0 0
x_3_7_0_1 0
x_3_7_0_2 0
x_3_7_1_0 0
x_3_7_1_1 0
x_3_7_1_2 0
x_3_7_2_0 0
x_3_7_2_1 0
x_3_7_2_2 0
x_3_7_3_0 0
x_3_7_3_1 0
x_3_7_3_2 0
x_3_8_0_0 0
x_3_8_0_1 8.4168783054394680e-14
x_3_8_0_2 0
x_3_8_1_0 0
x_3_8_1_1 0
x_3_8_1_2 0
x_3_8_2_0 0
x_3_8_2_1 0
x_3_8_2_2 0
x_3_8_3_0 0
x_3_8_3_1 0
x_3_8_3_2 0
x_3_9_0_0 0
x_3_9_0_1 -1.4113016311156912e-13
x_3_9_0_2 0
x_3_9_1_0 4.2965631052993558e-14
x_3_9_1_1 0
x_3_9_1_2 0
x_3_9_2_0 0
x_3_9_2_1 0
x_3_9_2_2 0
x_3_9_3_0 0
x_3_9_3_1 0
x_3_9_3_2 0
x_3_10_0_0 0
x_3_10_0_1 0
x_3_10_0_2 0
x_3_10_1_0 0
x_3_10_1_1 0
x_3_10_1_2 0
x_3_10_2_0 0
x_3_10_2_1 0
x_3_10_2_2 0
x_3_10_3_0 0
x_3_10_3_1 0
x_3_10_3_2 0
x_4_5_0_0 0
x_4_5_0_1 0
x_4_5_0_2 0
x_4_5_1_0 0
x_4_5_1_1 0
x_4_5_1_2 0
x_4_5_2_0 0
x_4_5_2_1 0
x_4_5_2_2 0
x_4_5_3_0 0
x_4_5_3_1 0
x_4_5_3_2 0
x_4_6_0_0 0
x_4_6_0_1 0
x_4_6_0_2 0
x_4_6_1_0 0
x_4_6_1_1 0
x_4_6_1_2 0
x_4_6_2_0 0
x_4_6_2_1 -8.4293683144665010e-14
x_4_6_2_2 0
x_4_6_3_0 4.2965631052993558e-14
x_4_6_3_1 0
x_4_6_3_2 0
x_4_7_0_0 0
x_4_7_0_1 0
x_4_7_0_2 0
x_4_7_1_0 0
x_4_7_1_1 0
x_4_7_1_2 0
x_4_7_2_0 0
x_4_7_2_1 0
x_4_7_2_2 0
x_4_7_3_0 0
x_4_7_3_1 0
x_4_7_3_2 0
x_4_8_0_0 9.9999999999995537e-01
x_4_8_0_1 0
x_4_8_0_2 0
x_4_8_1_0 0
x_4_8_1_1 0
x_4_8_1_2 0
x_4_8_2_0 0
x_4_8_2_1 0
x_4_8_2_2 0
x_4_8_3_0 0
x_4_8_3_1 0
x_4_8_3_2 0
x_4_9_0_0 0
x_4_9_0_1 0
x_4_9_0_2 0
x_4_9_1_0 0
x_4_9_1_1 0
x_4_9_1_2 0
x_4_9_2_0 0
x_4_9_2_1 -8.4293683144665010e-14
x_4_9_2_2 0
x_4_9_3_0 0
x_4_9_3_1 0
x_4_9_3_2 0
x_4_10_0_0 0
x_4_10_0_1 0
x_4_10_0_2 -8.9261931179862586e-14
x_4_10_1_0 0
x_4_10_1_1 0
x_4_10_1_2 0
x_4_10_2_0 0
x_4_10_2_1 0
x_4_10_2_2 0
x_4_10_3_0 8.9261931179862586e-14
x_4_10_3_1 0
x_4_10_3_2 0
x_5_6_0_0 0
x_5_6_0_1 0
x_5_6_0_2 0
x_5_6_1_0 0
x_5_6_1_1 0
x_5_6_1_2 0
x_5_6_2_0 0
x_5_6_2_1 0
x_5_6_2_2 0
x_5_6_3_0 0
x_5_6_3_1 0
x_5_6_3_2 0
x_5_7_0_0 0
x_5_7_0_1 0
x_5_7_0_2 0
x_5_7_1_0 0
x_5_7_1_1 0
x_5_7_1_2 0
x_5_7_2_0 0
x_5_7_2_1 0
x_5_7_2_2 0
x_5_7_3_0 0
x_5_7_3_1 0
x_5_7_3_2 0
x_5_8_0_0 0
x_5_8_0_1 0
x_5_8_0_2 0
x_5_8_1_0 0
x_5_8_1_1 0
x_5_8_1_2 0
x_5_8_2_0 0
x_5_8_2_1 0
x_5_8_2_2 0
x_5_8_3_0 0
x_5_8_3_1 0
x_5_8_3_2 0
x_5_9_0_0 0
x_5_9_0_1 0
x_5_9_0_2 0
x_5_9_1_0 0
x_5_9_1_1 0
x_5_9_1_2 0
x_5_9_2_0 0
x_5_9_2_1 0
x_5_9_2_2 0
x_5_9_3_0 0
x_5_9_3_1 0
x_5_9_3_2 0
x_5_10_0_0 0
x_5_10_0_1 0
x_5_10_0_2 0
x_5_10_1_0 0
x_5_10_1_1 0
x_5_10_1_2 0
x_5_10_2_0 0
x_5_10_2_1 0
x_5_10_2_2 0
x_5_10_3_0 0
x_5_10_3_1 0
x_5_10_3_2 0
x_6_7_0_0 0
x_6_7_0_1 0
x_6_7_0_2 0
x_6_7_1_0 0
x_6_7_1_1 0
x_6_7_1_2 0
x_6_7_2_0 0
x_6_7_2_1 0
x_6_7_2_2 0
x_6_7_3_0 0
x_6_7_3_1 0
x_6_7_3_2 0
x_6_8_0_0 0
x_6_8_0_1 0
x_6_8_0_2 0
x_6_8_1_0 0
x_6_8_1_1 0
x_6_8_1_2 0
x_6_8_2_0 0
x_6_8_2_1 0
x_6_8_2_2 0
x_6_8_3_0 0
x_6_8_3_1 0
x_6_8_3_2 0
x_6_9_0_0 0
x_6_9_0_1 0
x_6_9_0_2 0
x_6_9_1_0 -6.9388939039072284e-18
x_6_9_1_1 0
x_6_9_1_2 0
x_6_9_2_0 0
x_6_9_2_1 0
x_6_9_2_2 0
x_6_9_3_0 -4.2965631052993558e-14
x_6_9_3_1 0
x_6_9_3_2 0
x_6_10_0_0 0
x_6_10_0_1 0
x_6_10_0_2 0
x_6_10_1_0 0
x_6_10_1_1 0
x_6_10_1_2 0
x_6_10_2_0 0
x_6_10_2_1 1
x_6_10_2_2 0
x_6_10_3_0 0
x_6_10_3_1 0
x_6_10_3_2 0
x_7_8_0_0 1
x_7_8_0_1 0
x_7_8_0_2 0
x_7_8_1_0 0
x_7_8_1_1 0
x_7_8_1_2 0
x_7_8_2_0 0
x_7_8_2_1 0
x_7_8_2_2 0
x_7_8_3_0 0
x_7_8_3_1 1.1102230246251565e-16
x_7_8_3_2 0
x_7_9_0_0 0
x_7_9_0_1 0
x_7_9_0_2 0
x_7_9_1_0 0
x_7_9_1_1 0
x_7_9_1_2 0
x_7_9_2_0 0
x_7_9_2_1 0
x_7_9_2_2 0
x_7_9_3_0 0
x_7_9_3_1 0
x_7_9_3_2 0
x_7_10_0_0 0
x_7_10_0_1 0
x_7_10_0_2 0
x_7_10_1_0 0
x_7_10_1_1 0
x_7_10_1_2 0
x_7_10_2_0 0
x_7_10_2_1 0
x_7_10_2_2 0
x_7_10_3_0 0
x_7_10_3_1 0
x_7_10_3_2 0
x_8_9_0_0 0
x_8_9_0_1 9.9999999999985856e-01
x_8_9_0_2 8.8817841970012523e-14
x_8_9_1_0 0
x_8_9_1_1 0
x_8_9_1_2 0
x_8_9_2_0 0
x_8_9_2_1 0
x_8_9_2_2 0
x_8_9_3_0 0
x_8_9_3_1 0
x_8_9_3_2 0
x_8_10_0_0 0
x_8_10_0_1 0
x_8_10_0_2 0
x_8_10_1_0 0
x_8_10_1_1 0
x_8_10_1_2 0
x_8_10_2_0 0
x_8_10_2_1 0
x_8_10_2_2 0
x_8_10_3_0 0
x_8_10_3_1 0
x_8_10_3_2 0
x_9_10_0_0 0
x_9_10_0_1 0
x_9_10_0_2 0
x_9_10_1_0 6.9388939039072284e-18
x_9_10_1_1 0
x_9_10_1_2 0
x_9_10_2_0 0
x_9_10_2_1 0
x_9_10_2_2 0
x_9_10_3_0 0
x_9_10_3_1 0
x_9_10_3_2 0
